certificates/rado_a9_c31_N28.cnf
c Rad2 upper bound instance: x1 + 9*x2 - x3 = 31, interval [1,28]
p cnf 28 172
1 4 6 0
-1 -4 -6 0
1 5 15 0
-1 -5 -15 0
1 6 24 0
-1 -6 -24 0
2 4 7 0
-2 -4 -7 0
2 5 16 0
-2 -5 -16 0
2 6 25 0
-2 -6 -25 0
3 4 8 0
-3 -4 -8 0
3 5 17 0
-3 -5 -17 0
3 6 26 0
-3 -6 -26 0
4 9 0
-4 -9 0
4 5 18 0
-4 -5 -18 0
4 6 27 0
-4 -6 -27 0
1 3 5 0
-1 -3 -5 0
4 5 10 0
-4 -5 -10 0
5 19 0
-5 -19 0
5 6 28 0
-5 -6 -28 0
2 3 6 0
-2 -3 -6 0
4 6 11 0
-4 -6 -11 0
5 6 20 0
-5 -6 -20 0
3 7 0
-3 -7 0
4 7 12 0
-4 -7 -12 0
5 7 21 0
-5 -7 -21 0
4 8 13 0
-4 -8 -13 0
5 8 22 0
-5 -8 -22 0
3 5 9 0
-3 -5 -9 0
4 9 14 0
-4 -9 -14 0
5 9 23 0
-5 -9 -23 0
3 6 10 0
-3 -6 -10 0
4 10 15 0
-4 -10 -15 0
5 10 24 0
-5 -10 -24 0
3 7 11 0
-3 -7 -11 0
4 11 16 0
-4 -11 -16 0
5 11 25 0
-5 -11 -25 0
3 8 12 0
-3 -8 -12 0
4 12 17 0
-4 -12 -17 0
5 12 26 0
-5 -12 -26 0
3 9 13 0
-3 -9 -13 0
4 13 18 0
-4 -13 -18 0
5 13 27 0
-5 -13 -27 0
1 2 14 0
-1 -2 -14 0
3 10 14 0
-3 -10 -14 0
4 14 19 0
-4 -14 -19 0
5 14 28 0
-5 -14 -28 0
2 15 0
-2 -15 0
3 11 15 0
-3 -11 -15 0
4 15 20 0
-4 -15 -20 0
2 3 16 0
-2 -3 -16 0
3 12 16 0
-3 -12 -16 0
4 16 21 0
-4 -16 -21 0
2 4 17 0
-2 -4 -17 0
3 13 17 0
-3 -13 -17 0
4 17 22 0
-4 -17 -22 0
2 5 18 0
-2 -5 -18 0
3 14 18 0
-3 -14 -18 0
4 18 23 0
-4 -18 -23 0
2 6 19 0
-2 -6 -19 0
3 15 19 0
-3 -15 -19 0
4 19 24 0
-4 -19 -24 0
2 7 20 0
-2 -7 -20 0
3 16 20 0
-3 -16 -20 0
4 20 25 0
-4 -20 -25 0
2 8 21 0
-2 -8 -21 0
3 17 21 0
-3 -17 -21 0
4 21 26 0
-4 -21 -26 0
2 9 22 0
-2 -9 -22 0
3 18 22 0
-3 -18 -22 0
4 22 27 0
-4 -22 -27 0
1 23 0
-1 -23 0
2 10 23 0
-2 -10 -23 0
3 19 23 0
-3 -19 -23 0
4 23 28 0
-4 -23 -28 0
1 2 24 0
-1 -2 -24 0
2 11 24 0
-2 -11 -24 0
3 20 24 0
-3 -20 -24 0
1 3 25 0
-1 -3 -25 0
2 12 25 0
-2 -12 -25 0
3 21 25 0
-3 -21 -25 0
1 4 26 0
-1 -4 -26 0
2 13 26 0
-2 -13 -26 0
3 22 26 0
-3 -22 -26 0
1 5 27 0
-1 -5 -27 0
2 14 27 0
-2 -14 -27 0
3 23 27 0
-3 -23 -27 0
1 6 28 0
-1 -6 -28 0
2 15 28 0
-2 -15 -28 0
3 24 28 0
-3 -24 -28 0
