certificates/rado_a9_c31_N28.drat
-23 3 -28 0
-24 -28 0
d -3 -24 -28 0
-1 -25 -27 -28 0
-23 -27 -28 0
-26 7 -2 -1 0
-27 -28 0
d -23 -27 -28 0
23 -28 0
-28 0
-3 20 -6 0
-5 -23 0
5 1 0
d 5 15 1 0
-23 0
1 0
4 0
-6 0
-9 0
-26 0
3 0
5 0
-7 0
-25 0
0
